sat
(:max-memory         18.43
 :memory             18.33
 :nlsat-arith-var    3
 :nlsat-atoms        11
 :nlsat-bool-var     1
 :nlsat-clauses      6
 :nlsat-conflicts    2
 :nlsat-propagations 14
 :nlsat-stages       6
 :num-allocs         50266
 :rlimit-count       1288
 :time               0.00
 :total-time         0.01)
